language ESSENCE' 1.0

letting n_courses be 151
letting n_periods be 27
letting prerequisite_RelationAsSet_Explicit_1 be
        [1, 1, 1, 1, 1, 1, 1, 1, 1, 1, 1, 1, 2, 2, 2, 2, 2, 2, 2, 2, 2, 3, 3, 3, 3, 3, 3, 3, 3, 3, 3, 3, 3, 3, 4, 4, 4,
         4, 4, 4, 4, 4, 4, 4, 4, 4, 5, 5, 5, 5, 5, 5, 5, 5, 5, 5, 5, 5, 6, 6, 6, 6, 6, 6, 6, 6, 6, 6, 6, 6, 6, 6, 6, 6,
         7, 7, 7, 7, 7, 7, 7, 7, 7, 8, 8, 8, 8, 8, 8, 8, 9, 9, 9, 9, 9, 9, 9, 9, 10, 10, 10, 10, 10, 10, 10, 10, 10, 10,
         10, 11, 11, 11, 11, 11, 11, 11, 11, 11, 11, 11, 11, 11, 12, 12, 12, 12, 12, 12, 12, 13, 13, 13, 13, 13, 13, 13,
         13, 13, 14, 14, 14, 14, 14, 14, 14, 14, 14, 14, 14, 15, 15, 15, 15, 15, 15, 15, 15, 15, 16, 16, 16, 16, 16, 16,
         16, 16, 16, 16, 16, 16, 16, 17, 17, 17, 17, 17, 17, 17, 17, 17, 17, 17, 18, 18, 18, 18, 18, 18, 18, 18, 18, 18,
         19, 19, 19, 19, 19, 19, 19, 19, 20, 20, 20, 20, 20, 20, 21, 21, 21, 21, 21, 21, 21, 21, 21, 21, 21, 21, 21, 21,
         21, 22, 22, 22, 22, 22, 22, 22, 22, 22, 22, 22, 22, 23, 23, 23, 23, 23, 23, 23, 23, 23, 23, 23, 23, 23, 24, 24,
         24, 24, 24, 24, 24, 24, 24, 24, 24, 25, 25, 25, 25, 25, 25, 25, 26, 26, 26, 26, 26, 26, 26, 26, 26, 26, 27, 27,
         27, 27, 27, 27, 27, 27, 27, 27, 27, 27, 27, 27, 28, 28, 28, 28, 28, 28, 28, 28, 28, 29, 29, 29, 29, 29, 29, 29,
         29, 29, 29, 29, 30, 30, 31, 32, 32, 32, 32, 32, 33, 33, 34, 34, 34, 34, 35, 35, 35, 36, 37, 37, 37, 37, 37, 38,
         38, 38, 38, 38, 39, 39, 39, 39, 40, 40, 40, 40, 41, 41, 41, 41, 41, 41, 41, 41, 42, 42, 42, 42, 42, 42, 42, 42,
         43, 43, 43, 44, 45, 45, 46, 46, 46, 46, 46, 47, 47, 47, 47, 48, 49, 49, 49, 49, 49, 50, 50, 50, 50, 51, 51, 52,
         52, 53, 53, 54, 54, 54, 55, 55, 56, 56, 57, 57, 57, 57, 57, 57, 57, 58, 58, 58, 58, 59, 59, 60, 60, 60, 60, 60,
         61, 61, 61, 62, 62, 62, 63, 63, 63, 63, 63, 64, 64, 64, 64, 64, 65, 65, 65, 65, 66, 66, 66, 66, 67, 67, 67, 67,
         67, 67, 67, 68, 68, 69, 69, 69, 69, 70, 70, 70, 70, 70, 70, 70, 71, 71, 72, 72, 72, 72, 72, 73, 73, 73, 74, 74,
         74, 75, 76, 76, 76, 76, 76, 76, 77, 77, 78, 78, 78, 78, 78, 79, 79, 79, 79, 79, 80, 80, 80, 81, 82, 82, 82, 82,
         83, 83, 83, 83, 83, 83, 83, 83, 84, 84, 84, 84, 84, 84, 84, 85, 85, 85, 85, 85, 85, 86, 86, 86, 86, 87, 87, 87,
         88, 88, 88, 89, 89, 89, 89, 90, 90, 90, 90, 90, 90, 91, 91, 91, 91, 91, 92, 92, 92, 92, 92, 93, 93, 93, 93, 94,
         94, 94, 94, 94, 94, 94, 95, 95, 95, 96, 96, 96, 96, 97, 97, 98, 98, 98, 98, 99, 99, 99, 99, 99, 100, 100, 100,
         101, 101, 101, 101, 101, 102, 102, 102, 102, 102, 102, 103, 103, 103, 103;
             int(1..598)]
letting prerequisite_RelationAsSet_Explicit_2 be
        [39, 42, 45, 57, 67, 68, 71, 76, 94, 95, 99, 103, 49, 61, 62, 72, 76, 78, 87, 99, 101, 39, 40, 44, 45, 46, 57,
         65, 76, 77, 83, 86, 97, 98, 31, 37, 39, 41, 44, 45, 64, 67, 80, 81, 82, 99, 35, 37, 48, 53, 59, 65, 66, 79, 83,
         89, 91, 101, 41, 43, 45, 46, 47, 49, 56, 69, 73, 76, 82, 84, 88, 91, 97, 101, 39, 47, 54, 58, 68, 74, 86, 97,
         98, 35, 40, 52, 63, 64, 75, 103, 38, 40, 65, 68, 79, 86, 89, 101, 37, 40, 43, 45, 59, 64, 65, 72, 81, 93, 102,
         37, 42, 56, 57, 65, 72, 74, 76, 77, 81, 83, 90, 102, 30, 35, 63, 68, 74, 80, 91, 33, 34, 37, 42, 43, 64, 76,
         77, 79, 34, 45, 50, 66, 68, 72, 73, 74, 81, 102, 103, 35, 42, 55, 60, 68, 72, 80, 90, 94, 31, 41, 51, 70, 73,
         76, 78, 87, 88, 92, 99, 101, 103, 30, 34, 38, 54, 56, 57, 71, 84, 93, 94, 96, 34, 51, 54, 60, 61, 78, 85, 87,
         90, 92, 42, 59, 70, 72, 95, 96, 100, 102, 36, 40, 54, 55, 56, 60, 31, 32, 39, 41, 43, 49, 62, 63, 75, 82, 83,
         87, 88, 99, 101, 40, 45, 53, 57, 63, 65, 81, 89, 93, 94, 97, 102, 33, 36, 41, 50, 54, 59, 66, 71, 80, 82, 89,
         90, 103, 30, 32, 34, 37, 51, 63, 64, 68, 75, 80, 96, 44, 46, 56, 60, 67, 70, 90, 32, 33, 39, 40, 52, 53, 58,
         63, 68, 87, 30, 32, 40, 46, 48, 50, 55, 57, 61, 62, 65, 74, 88, 98, 36, 47, 59, 63, 75, 77, 81, 85, 102, 31,
         41, 45, 61, 72, 78, 80, 91, 93, 94, 95, 130, 138, 137, 104, 109, 118, 130, 139, 104, 129, 105, 138, 139, 148,
         111, 119, 148, 151, 106, 123, 126, 129, 144, 111, 113, 129, 131, 139, 104, 113, 120, 121, 111, 116, 148, 149,
         123, 124, 125, 135, 141, 144, 146, 151, 107, 108, 118, 119, 122, 128, 150, 151, 121, 131, 142, 150, 144, 147,
         125, 130, 138, 140, 143, 105, 114, 146, 147, 133, 114, 122, 128, 132, 134, 105, 137, 140, 144, 132, 147, 116,
         149, 131, 141, 137, 148, 150, 132, 145, 110, 114, 106, 115, 125, 131, 138, 140, 142, 112, 113, 143, 146, 123,
         129, 115, 121, 133, 147, 148, 122, 131, 144, 116, 119, 137, 104, 115, 117, 123, 142, 118, 120, 121, 139, 145,
         109, 124, 138, 146, 124, 130, 133, 136, 104, 105, 106, 117, 134, 141, 144, 126, 138, 106, 107, 129, 141, 105,
         132, 133, 134, 140, 142, 151, 125, 136, 126, 128, 135, 139, 151, 106, 116, 127, 107, 112, 141, 140, 106, 109,
         113, 121, 142, 146, 109, 133, 125, 138, 141, 145, 149, 114, 117, 121, 127, 151, 107, 123, 144, 143, 108, 109,
         115, 151, 110, 116, 123, 125, 129, 133, 144, 148, 107, 108, 111, 121, 124, 127, 143, 110, 118, 122, 123, 147,
         151, 104, 125, 131, 135, 108, 131, 146, 105, 115, 119, 105, 130, 148, 149, 105, 112, 126, 135, 140, 144, 108,
         110, 111, 115, 130, 112, 122, 128, 129, 135, 112, 127, 133, 144, 109, 112, 126, 140, 141, 144, 146, 105, 139,
         144, 109, 111, 114, 128, 139, 142, 111, 114, 135, 141, 114, 132, 138, 139, 150, 109, 114, 138, 110, 130, 133,
         137, 148, 104, 125, 127, 129, 135, 139, 107, 109, 125, 143;
             int(1..598)]
letting course_load_Function1D be
        [3, 3, 6, 7, 9, 6, 8, 6, 3, 7, 8, 3, 5, 5, 5, 8, 6, 5, 3, 4, 3, 3, 6, 5, 7, 3, 3, 5, 7, 4, 6, 6, 3, 8, 5, 3, 3,
         7, 6, 5, 7, 8, 4, 6, 5, 6, 5, 8, 4, 8, 8, 8, 3, 7, 8, 4, 7, 3, 5, 3, 8, 8, 5, 8, 7, 9, 8, 3, 6, 4, 7, 7, 6, 4,
         4, 8, 4, 4, 5, 8, 5, 5, 5, 5, 5, 8, 5, 5, 8, 4, 5, 5, 5, 8, 3, 3, 7, 7, 5, 4, 9, 6, 8, 3, 5, 7, 8, 5, 3, 9, 7,
         5, 5, 6, 4, 3, 5, 4, 3, 5, 3, 6, 4, 7, 4, 3, 5, 3, 8, 6, 5, 7, 8, 8, 6, 8, 3, 3, 8, 5, 6, 7, 8, 9, 5, 3, 6, 4,
         3, 3, 9;
             int(1..151)]
letting load_per_period_ub be 36
letting load_per_period_lb be 4
letting courses_per_period_ub be 9
letting courses_per_period_lb be 5
letting fin1 be 598
letting fin2 be 151
letting fin3 be 9
